&DOS
    outdir = './tmp' ,
    prefix = 'bismuto' ,
    fildos = 'bismuto.dos' ,
    DeltaE = 0.001,
 /  
