 &INPUTPP
    prefix    =  'ag12Bic',
    outdir    =  './tmp',
    filplot   =  'psi2.ag12Bic',

    plot_num  =  7,
    kpoint    =  1, 
    kband(1)  =  71,
    kband(2)  =  75,    
    lsign     =  .true.,
 /


 &PLOT
    fileout       =  '.xsf',
    iflag         =  3,
    nfile         =  1,
    output_format =  5,
    weight(1)     =  1.0,
 /
