&PROJWFC
    outdir = './tmp' ,
    prefix = 'ag12Bil' ,
    filpdos = 'ag12Bil.dos' ,
    filproj = 'ag12Bil.pdos',
    DeltaE = 0.001
 /
