&DOS
    outdir = './tmp' ,
    prefix = 'ag12Bil' ,
    fildos = 'ag12Bil.dos' ,
    DeltaE = 0.001,
 /  
