&PROJWFC
    outdir = './tmp',
    prefix = 'plata',
    filpdos = 'plata.dos',
    filproj = 'plata.pdos',
    DeltaE = 0.001
 /
