&DOS
    outdir = './tmp' ,
    prefix = 'plata' ,
    fildos = 'plata.dos' ,
    Emin = -10,
    DeltaE = 0.001,
 /  
