&DOS
    outdir = './tmp' ,
    prefix = 'ag13' ,
    fildos = 'ag13.dos' ,
    DeltaE = 0.001,
 /  
