&PROJWFC
    outdir = './tmp',
    prefix = 'ag13',
    filpdos = 'ag13.dos',
    filproj = 'ag13.pdos',
    DeltaE=0.001
 /
